52
14 42 242
42 32 365
32 50 475
50 11 188
11 10 387
10 51 399
51 13 319
13 12 206
12 26 185
26 27 110
27 25 159
25 46 186
46 28 523
28 29 260
29 52 451
52 1 155
1 6 45
6 41 76
41 20 290
20 16 253
16 2 217
2 17 135
17 30 80
30 21 104
21 22 175
22 19 94
19 49 35
49 15 130
15 43 132
43 45 131
45 24 173
24 3 109
3 5 70
5 9 523
9 8 83
8 7 183
7 40 64
40 18 92
18 44 75
44 31 151
31 48 50
48 35 81
35 34 15
34 33 21
33 38 59
38 39 43
39 36 41
36 37 43
37 47 49
47 23 16
23 4 32
4 14 25

